clingo version 5.5.2
Reading from ...nt/beegfs/home/jubruns/encoding/mif.lp ...
Solving...
Answer: 1
move(1,(11,8),(11,9),1) move(1,(11,9),(12,9),4) move(1,(12,9),(12,10),5) move(1,(12,10),(12,11),6) move(1,(12,11),(11,11),7) move(1,(11,11),(10,11),8) move(1,(10,11),(11,11),12) move(1,(11,11),(12,11),13) move(1,(12,11),(12,10),14) move(1,(12,10),(12,11),15) move(1,(12,11),(11,11),16) move(1,(11,11),(10,11),17) move(2,(10,6),(9,6),1) move(2,(9,6),(8,6),2) move(2,(8,6),(7,6),3) move(2,(7,6),(6,6),4) move(2,(6,6),(5,6),5) move(2,(5,6),(4,6),12) move(2,(4,6),(4,7),13) move(2,(4,7),(4,6),14) move(2,(4,6),(5,6),15) move(3,(6,11),(6,12),1) move(3,(6,12),(5,12),2) move(3,(5,12),(4,12),3) move(3,(4,12),(4,11),4) move(3,(4,11),(3,11),5) move(3,(3,11),(2,11),6) move(3,(2,11),(2,10),7) move(3,(2,10),(2,9),8) move(3,(2,9),(2,8),9) move(3,(2,8),(2,7),10) move(3,(2,7),(2,6),11) move(3,(2,6),(3,6),12) move(3,(3,6),(4,6),13) move(3,(4,6),(5,6),14) move(3,(5,6),(6,6),15) move(3,(6,6),(7,6),16) move(3,(7,6),(7,5),17) move(3,(7,5),(7,4),18) move(3,(7,4),(7,3),19) move(3,(7,3),(7,2),20) move(3,(7,2),(7,1),21) move(4,(13,5),(13,6),1) move(4,(13,6),(13,7),2) move(4,(13,7),(13,8),3) move(4,(13,8),(13,9),4) move(4,(13,9),(12,9),5) move(4,(12,9),(12,10),6) move(4,(12,10),(12,11),7) move(4,(12,11),(12,12),8) move(4,(12,12),(11,12),9) move(4,(11,12),(11,11),14) move(4,(11,11),(10,11),15) move(4,(10,11),(9,11),16) move(4,(9,11),(9,12),17) move(4,(9,12),(8,12),18) move(4,(8,12),(7,12),19) move(4,(7,12),(6,12),20) move(4,(6,12),(5,12),21) move(5,(2,10),(2,11),1) move(5,(2,11),(2,12),2) move(5,(2,12),(3,12),3) move(5,(3,12),(4,12),4) move(5,(4,12),(5,12),5) move(5,(5,12),(6,12),6) move(5,(6,12),(7,12),7) move(5,(7,12),(8,12),8) move(5,(8,12),(9,12),9) move(5,(9,12),(9,11),11) move(5,(9,11),(10,11),12) move(5,(10,11),(11,11),13) move(5,(11,11),(12,11),14) move(5,(12,11),(13,11),15) move(5,(13,11),(13,12),16) move(6,(12,8),(12,7),1) move(6,(12,7),(12,6),2) move(6,(12,6),(11,6),3) move(6,(11,6),(10,6),4) move(6,(10,6),(9,6),5) move(6,(9,6),(8,6),6) move(6,(8,6),(7,6),7) move(6,(7,6),(7,5),8) move(6,(7,5),(7,4),9) move(6,(7,4),(8,4),10) move(6,(8,4),(9,4),11) move(6,(9,4),(10,4),12) move(7,(13,1),(13,2),1) move(7,(13,2),(13,3),2) move(7,(13,3),(13,4),3) move(7,(13,4),(13,5),4) move(7,(13,5),(13,6),5) move(7,(13,6),(13,7),6) move(7,(13,7),(12,7),7) move(7,(12,7),(12,8),8) move(7,(12,8),(12,9),9) move(7,(12,9),(12,10),10) move(7,(12,10),(12,11),11) move(7,(12,11),(12,12),12) move(8,(5,2),(6,2),1) move(8,(6,2),(7,2),2) move(8,(7,2),(7,3),3) move(8,(7,3),(7,4),4) move(8,(7,4),(8,4),5) move(8,(8,4),(9,4),6) move(8,(9,4),(10,4),7) move(8,(10,4),(11,4),8) move(8,(11,4),(12,4),9) move(8,(12,4),(13,4),10) move(8,(13,4),(13,5),11) move(8,(13,5),(13,6),12) move(8,(13,6),(13,7),13) move(8,(13,7),(12,7),14) move(8,(12,7),(12,8),15) move(8,(12,8),(12,9),16) move(8,(12,9),(13,9),17) move(9,(8,8),(8,9),1) move(10,(7,7),(7,8),1) move(11,(13,11),(12,11),1) move(11,(12,11),(12,10),2) move(11,(12,10),(12,9),3) move(11,(12,9),(12,8),4) move(11,(12,8),(13,8),5) move(12,(11,2),(11,3),1) move(12,(11,3),(11,4),2) move(12,(11,4),(12,4),3) move(12,(12,4),(13,4),4) move(12,(13,4),(13,5),5) move(12,(13,5),(13,6),6) move(12,(13,6),(13,7),7) move(12,(13,7),(12,7),8) move(12,(12,7),(12,8),9) move(12,(12,8),(11,8),10) move(13,(12,4),(12,3),1) move(13,(12,3),(12,2),2) move(13,(12,2),(13,2),3) move(13,(13,2),(13,1),4) move(14,(1,9),(1,8),1) move(14,(1,8),(1,7),2) move(14,(1,7),(1,6),3) move(14,(1,6),(1,5),4) move(14,(1,5),(1,4),5) move(14,(1,4),(1,3),6) move(14,(1,3),(1,2),7) move(14,(1,2),(2,2),8) move(15,(5,6),(6,6),1) move(15,(6,6),(7,6),2) move(15,(7,6),(7,7),3) move(15,(7,7),(8,7),4) move(15,(8,7),(9,7),5) move(15,(9,7),(9,6),6) move(15,(9,6),(10,6),7) move(16,(10,4),(9,4),1) move(16,(9,4),(8,4),2) move(16,(8,4),(7,4),3) move(16,(7,4),(6,4),4) move(16,(6,4),(6,3),5) move(16,(6,3),(6,2),6) move(16,(6,2),(5,2),7) move(16,(5,2),(4,2),8) move(16,(4,2),(3,2),9) move(16,(3,2),(3,3),10) move(16,(3,3),(2,3),11) move(16,(2,3),(2,4),12) move(16,(2,4),(1,4),13) move(16,(1,4),(1,5),14) move(16,(1,5),(1,6),15) move(16,(1,6),(2,6),16) move(16,(2,6),(2,7),17) move(16,(2,7),(2,8),18)
SATISFIABLE

Models       : 1+
Calls        : 1
Time         : 1.345s (Solving: 0.04s 1st Model: 0.04s Unsat: 0.00s)
CPU Time     : 1.297s

Choices      : 446      (Domain: 446)
Conflicts    : 19       (Analyzed: 19)
Restarts     : 0       
Model-Level  : 199.0   
Problems     : 1        (Average Length: 0.00 Splits: 0)
Lemmas       : 19       (Deleted: 0)
  Binary     : 8        (Ratio:  42.11%)
  Ternary    : 1        (Ratio:   5.26%)
  Conflict   : 19       (Average Length:    6.8 Ratio: 100.00%) 
  Loop       : 0        (Average Length:    0.0 Ratio:   0.00%) 
  Other      : 0        (Average Length:    0.0 Ratio:   0.00%) 
Backjumps    : 19       (Average: 13.00 Max:  56 Sum:    247)
  Executed   : 19       (Average: 13.00 Max:  56 Sum:    247 Ratio: 100.00%)
  Bounded    : 0        (Average:  0.00 Max:   0 Sum:      0 Ratio:   0.00%)

Rules        : 451738   (Original: 394339)
  Choice     : 336     
  Heuristic  : 24313    (Original: 24674)
Atoms        : 186138   (Original: 171359 Auxiliary: 14779)
Bodies       : 275114   (Original: 232232)
  Count      : 2199     (Original: 3221)
Equivalences : 159942   (Atom=Atom: 381 Body=Body: 408 Other: 159153)
Tight        : Yes
Variables    : 270417   (Eliminated:    0 Frozen: 154552)
Constraints  : 666889   (Binary:  82.3% Ternary:  13.2% Other:   4.5%)

